/*********************************************
 * OPL 12.6.0.0 Data
 * Author: Adrian Rodriguez Bazaga, Pau Rodriguez Esmerats
 * Creation Date: 05/01/2018 at 12:30:18
 *********************************************/

maxConsec=6;
maxPresence=18;
maxHours=3;
minHours=1;
hours=48;
demand= [187 250 250 196 123 63 0 0 0 0 0 0 0 0 0 0 0 0 0 0 0 0 0 0 0 0 0 0 0 0 0 0 0 0 0 0 0 0 0 0 0 0 0 0 0 0 0 0  ];
nNurses=400;
